!PBE0 aug-cc-PVTZ
* xyzfile 1 2 H2CO.xyz
%scf
MaxIter 100
end
