!PBE0 aug-cc-PVTZ
%TDDFT
NROOTS 100
TPrint 0.000001
TDA TRUE
END
* xyzfile 0 1 H2CO.xyz
%scf
MaxIter 100
end
